c t pwmc
c file mc2022_track4_077.cnf
p cnf 167 462
c p show 3 4 5 6 7 8 9 10 11 12 13 14 15 16 17 18 122 123 124 125 126 127 128 129 130 131 132 133 134 135 136 137 0
2 0
-3 19 -35 0
3 19 35 0
-3 -19 35 0
3 -19 35 0
-4 20 -36 0
4 20 35 -36 0
4 20 -35 36 0
-4 -20 35 -36 0
-4 -20 -35 36 0
4 -20 36 0
-5 21 -37 0
5 21 36 -37 0
5 21 -36 37 0
-5 -21 36 -37 0
-5 -21 -36 37 0
5 -21 37 0
-6 22 -38 0
6 22 37 -38 0
6 22 -37 38 0
-6 -22 37 -38 0
-6 -22 -37 38 0
6 -22 38 0
-7 23 -39 0
7 23 38 -39 0
7 23 -38 39 0
-7 -23 38 -39 0
-7 -23 -38 39 0
7 -23 39 0
-8 24 -40 0
8 24 39 -40 0
8 24 -39 40 0
-8 -24 39 -40 0
-8 -24 -39 40 0
8 -24 40 0
-9 25 -41 0
9 25 40 -41 0
9 25 -40 41 0
-9 -25 40 -41 0
-9 -25 -40 41 0
9 -25 41 0
-10 26 -42 0
10 26 41 -42 0
10 26 -41 42 0
-10 -26 41 -42 0
-10 -26 -41 42 0
10 -26 42 0
-11 27 -43 0
11 27 42 -43 0
11 27 -42 43 0
-11 -27 42 -43 0
-11 -27 -42 43 0
11 -27 43 0
-12 28 -44 0
12 28 43 -44 0
12 28 -43 44 0
-12 -28 43 -44 0
-12 -28 -43 44 0
12 -28 44 0
-13 29 -45 0
13 29 44 -45 0
13 29 -44 45 0
-13 -29 44 -45 0
-13 -29 -44 45 0
13 -29 45 0
-14 30 -46 0
14 30 45 -46 0
14 30 -45 46 0
-14 -30 45 -46 0
-14 -30 -45 46 0
14 -30 46 0
-15 31 -47 0
15 31 46 -47 0
15 31 -46 47 0
-15 -31 46 -47 0
-15 -31 -46 47 0
15 -31 47 0
-16 32 -48 0
16 32 47 -48 0
16 32 -47 48 0
-16 -32 47 -48 0
-16 -32 -47 48 0
16 -32 48 0
-17 33 -49 0
17 33 48 -49 0
17 33 -48 49 0
-17 -33 48 -49 0
-17 -33 -48 49 0
17 -33 49 0
-18 34 -50 0
18 34 49 -50 0
18 34 -49 50 0
-18 -34 49 -50 0
-18 -34 -49 50 0
18 -34 50 0
-18 34 -51 0
18 34 50 -51 0
18 34 -50 51 0
-18 -34 50 -51 0
-18 -34 -50 51 0
18 -34 51 0
-18 34 -52 0
18 34 51 -52 0
18 34 -51 52 0
-18 -34 51 -52 0
-18 -34 -51 52 0
18 -34 52 0
-18 34 -53 0
18 34 52 -53 0
18 34 -52 53 0
-18 -34 52 -53 0
-18 -34 -52 53 0
18 -34 53 0
-18 34 -54 0
18 34 53 -54 0
18 34 -53 54 0
-18 -34 53 -54 0
-18 -34 -53 54 0
18 -34 54 0
-18 34 -55 0
18 34 54 -55 0
18 34 -54 55 0
-18 -34 54 -55 0
-18 -34 -54 55 0
18 -34 55 0
-18 34 -56 0
18 34 55 -56 0
18 34 -55 56 0
-18 -34 55 -56 0
-18 -34 -55 56 0
18 -34 56 0
-18 34 -57 0
18 34 56 -57 0
18 34 -56 57 0
-18 -34 56 -57 0
-18 -34 -56 57 0
18 -34 57 0
-18 34 -58 0
18 34 57 -58 0
18 34 -57 58 0
-18 -34 57 -58 0
-18 -34 -57 58 0
18 -34 58 0
-18 34 -59 0
18 34 58 -59 0
18 34 -58 59 0
-18 -34 58 -59 0
-18 -34 -58 59 0
18 -34 59 0
-18 34 -60 0
18 34 59 -60 0
18 34 -59 60 0
-18 -34 59 -60 0
-18 -34 -59 60 0
18 -34 60 0
-18 34 -61 0
18 34 60 -61 0
18 34 -60 61 0
-18 -34 60 -61 0
-18 -34 -60 61 0
18 -34 61 0
-18 34 -62 0
18 34 61 -62 0
18 34 -61 62 0
-18 -34 61 -62 0
-18 -34 -61 62 0
18 -34 62 0
-18 34 -63 0
18 34 62 -63 0
18 34 -62 63 0
-18 -34 62 -63 0
-18 -34 -62 63 0
18 -34 63 0
-18 34 -64 0
18 34 63 -64 0
18 34 -63 64 0
-18 -34 63 -64 0
-18 -34 -63 64 0
18 -34 64 0
-18 34 -65 0
18 34 64 -65 0
18 34 -64 65 0
-18 -34 64 -65 0
-18 -34 -64 65 0
18 -34 65 0
-18 34 -66 0
18 34 65 -66 0
18 34 -65 66 0
-18 -34 65 -66 0
-18 -34 -65 66 0
18 -34 66 0
-18 -34 -67 0
18 34 -67 0
18 -34 67 0
-18 34 67 0
-66 67 -68 0
66 -67 -68 0
66 67 68 0
-66 -67 68 0
-3 -19 -69 0
3 19 -69 0
3 -19 69 0
-3 19 69 0
-4 -20 -70 0
4 20 -70 0
4 -20 70 0
-4 20 70 0
-5 -21 -71 0
5 21 -71 0
5 -21 71 0
-5 21 71 0
-6 -22 -72 0
6 22 -72 0
6 -22 72 0
-6 22 72 0
-7 -23 -73 0
7 23 -73 0
7 -23 73 0
-7 23 73 0
-8 -24 -74 0
8 24 -74 0
8 -24 74 0
-8 24 74 0
-9 -25 -75 0
9 25 -75 0
9 -25 75 0
-9 25 75 0
-10 -26 -76 0
10 26 -76 0
10 -26 76 0
-10 26 76 0
-11 -27 -77 0
11 27 -77 0
11 -27 77 0
-11 27 77 0
-12 -28 -78 0
12 28 -78 0
12 -28 78 0
-12 28 78 0
-13 -29 -79 0
13 29 -79 0
13 -29 79 0
-13 29 79 0
-14 -30 -80 0
14 30 -80 0
14 -30 80 0
-14 30 80 0
-15 -31 -81 0
15 31 -81 0
15 -31 81 0
-15 31 81 0
-16 -32 -82 0
16 32 -82 0
16 -32 82 0
-16 32 82 0
-17 -33 -83 0
17 33 -83 0
17 -33 83 0
-17 33 83 0
-18 -34 -84 0
18 34 -84 0
18 -34 84 0
-18 34 84 0
-18 -34 -85 0
18 34 -85 0
18 -34 85 0
-18 34 85 0
-18 -34 -86 0
18 34 -86 0
18 -34 86 0
-18 34 86 0
-18 -34 -87 0
18 34 -87 0
18 -34 87 0
-18 34 87 0
-18 -34 -88 0
18 34 -88 0
18 -34 88 0
-18 34 88 0
-18 -34 -89 0
18 34 -89 0
18 -34 89 0
-18 34 89 0
-18 -34 -90 0
18 34 -90 0
18 -34 90 0
-18 34 90 0
-18 -34 -91 0
18 34 -91 0
18 -34 91 0
-18 34 91 0
-18 -34 -92 0
18 34 -92 0
18 -34 92 0
-18 34 92 0
-18 -34 -93 0
18 34 -93 0
18 -34 93 0
-18 34 93 0
-18 -34 -94 0
18 34 -94 0
18 -34 94 0
-18 34 94 0
-18 -34 -95 0
18 34 -95 0
18 -34 95 0
-18 34 95 0
-18 -34 -96 0
18 34 -96 0
18 -34 96 0
-18 34 96 0
-18 -34 -97 0
18 34 -97 0
18 -34 97 0
-18 34 97 0
-18 -34 -98 0
18 34 -98 0
18 -34 98 0
-18 34 98 0
-18 -34 -99 0
18 34 -99 0
18 -34 99 0
-18 34 99 0
-18 -34 -100 0
18 34 -100 0
18 -34 100 0
-18 34 100 0
-69 -101 0
-70 -101 0
-71 -101 0
-72 -101 0
-73 -101 0
-74 -101 0
-75 -101 0
-76 -101 0
-77 -101 0
-78 -101 0
-79 -101 0
-80 -101 0
-81 -101 0
-82 -101 0
-83 -101 0
-84 -101 0
-85 -101 0
-86 -101 0
-87 -101 0
-88 -101 0
-89 -101 0
-90 -101 0
-91 -101 0
-92 -101 0
-93 -101 0
-94 -101 0
-95 -101 0
-96 -101 0
-97 -101 0
-98 -101 0
-99 -101 0
-100 -101 0
69 70 71 72 73 74 75 76 77 78 79 80 81 82 83 84 85 86 87 88 89 90 91 92 93 94 95 96 97 98 99 100 101 0
-68 102 0
-101 102 0
68 101 -102 0
103 104 0
-102 104 0
102 -103 -104 0
104 0
-1 102 -105 0
1 -102 -105 0
-1 -102 105 0
1 102 105 0
-105 0
1 -19 122 0
1 19 -122 0
-1 -3 122 0
-1 3 -122 0
1 -20 123 0
1 20 -123 0
-1 -4 123 0
-1 4 -123 0
1 -21 124 0
1 21 -124 0
-1 -5 124 0
-1 5 -124 0
1 -22 125 0
1 22 -125 0
-1 -6 125 0
-1 6 -125 0
1 -23 126 0
1 23 -126 0
-1 -7 126 0
-1 7 -126 0
1 -24 127 0
1 24 -127 0
-1 -8 127 0
-1 8 -127 0
1 -25 128 0
1 25 -128 0
-1 -9 128 0
-1 9 -128 0
1 -26 129 0
1 26 -129 0
-1 -10 129 0
-1 10 -129 0
1 -27 130 0
1 27 -130 0
-1 -11 130 0
-1 11 -130 0
1 -28 131 0
1 28 -131 0
-1 -12 131 0
-1 12 -131 0
1 -29 132 0
1 29 -132 0
-1 -13 132 0
-1 13 -132 0
1 -30 133 0
1 30 -133 0
-1 -14 133 0
-1 14 -133 0
1 -31 134 0
1 31 -134 0
-1 -15 134 0
-1 15 -134 0
1 -32 135 0
1 32 -135 0
-1 -16 135 0
-1 16 -135 0
1 -33 136 0
1 33 -136 0
-1 -17 136 0
-1 17 -136 0
1 -34 137 0
1 34 -137 0
-1 -18 137 0
-1 18 -137 0
-154 -156 -158 0
154 156 -158 0
-154 156 158 0
154 -156 158 0
-155 -157 -159 0
155 157 -159 0
-155 157 159 0
155 -157 159 0
-158 -160 0
-159 -160 0
158 159 160 0
-103 160 0
103 -160 0
-161 -163 -165 0
161 163 -165 0
-161 163 165 0
161 -163 165 0
-162 -164 -166 0
162 164 -166 0
-162 164 166 0
162 -164 166 0
-165 -167 0
-166 -167 0
165 166 167 0
-2 167 0
2 -167 0
c p weight 128 0.28690265 0
c p weight -128 0.71309735 0
c p weight 129 0.44371111 0
c p weight -129 0.55628889 0
c p weight 130 0.36091408 0
c p weight -130 0.63908592 0
c p weight 3 0.58909122 0
c p weight -3 0.41090878 0
c p weight 4 0.35219872 0
c p weight -4 0.64780128 0
c p weight 5 0.64087272 0
c p weight -5 0.35912728 0
c p weight 6 0.23109784 0
c p weight -6 0.76890216 0
c p weight 7 0.49479161 0
c p weight -7 0.50520839 0
c p weight 8 0.38217130 0
c p weight -8 0.61782870 0
c p weight 9 0.77446943 0
c p weight -9 0.22553057 0
c p weight 10 0.68385487 0
c p weight -10 0.31614513 0
c p weight 11 0.27471645 0
c p weight -11 0.72528355 0
c p weight 12 0.24449521 0
c p weight -12 0.75550479 0
c p weight 13 0.28186913 0
c p weight -13 0.71813087 0
c p weight 14 0.75965208 0
c p weight -14 0.24034792 0
c p weight 15 0.35501959 0
c p weight -15 0.64498041 0
c p weight 16 0.26990798 0
c p weight -16 0.73009202 0
c p weight 17 0.72916346 0
c p weight -17 0.27083654 0
c p weight 18 0.61566032 0
c p weight -18 0.38433968 0
c p weight 131 0.59849034 0
c p weight -131 0.40150966 0
c p weight 132 0.21255244 0
c p weight -132 0.78744756 0
c p weight 133 0.47054139 0
c p weight -133 0.52945861 0
c p weight 134 0.28269527 0
c p weight -134 0.71730473 0
c p weight 135 0.26614181 0
c p weight -135 0.73385819 0
c p weight 136 0.67078742 0
c p weight -136 0.32921258 0
c p weight 137 0.44306461 0
c p weight -137 0.55693539 0
c p weight 122 0.76319672 0
c p weight -122 0.23680328 0
c p weight 123 0.73190921 0
c p weight -123 0.26809079 0
c p weight 124 0.48600878 0
c p weight -124 0.51399122 0
c p weight 125 0.35431738 0
c p weight -125 0.64568262 0
c p weight 126 0.46820246 0
c p weight -126 0.53179754 0
c p weight 127 0.56411989 0
c p weight -127 0.43588011 0
